; benchmark generated from python API
(set-info :status unknown)
(declare-fun x_days () (_ BitVec 32))
(assert
 (bvsle (_ bv4294930771 32) x_days))
(assert
 (bvsge (_ bv36523 32) x_days))
(assert
 (bvsge x_days (_ bv8341 32)))
(assert
 (bvsle x_days (_ bv8705 32)))
(assert
 (let ((?x1016 (bvadd x_days (_ bv730179 32))))
(let ((?x1779 (bvsmod ?x1016 (_ bv146097 32))))
(let ((?x38040 (bvsdiv ?x1779 (_ bv36524 32))))
(let ((?x38093 (ite (bvsle (_ bv4 32) ?x38040) (_ bv3 32) ?x38040)))
(let ((?x1326 (bvsub ?x1779 (bvmul ?x38093 (_ bv36524 32)))))
(let ((?x1679 (bvsmod ?x1326 (_ bv1461 32))))
(let ((?x4661 (bvsdiv ?x1679 (_ bv365 32))))
(let ((?x4324 (ite (bvsle (_ bv4 32) ?x4661) (_ bv3 32) ?x4661)))
(let ((?x38079 (bvadd (bvadd (bvmul (bvsdiv ?x1016 (_ bv146097 32)) (_ bv400 32)) (bvmul ?x38093 (_ bv100 32))) (bvmul (bvsdiv ?x1326 (_ bv1461 32)) (_ bv4 32)))))
(let ((?x2215 (bvadd (bvadd ?x38079 ?x4324) (_ bv1 32))))
(let (($x13354 (or (and (= (bvsmod ?x2215 (_ bv4 32)) (_ bv0 32)) (and (distinct (bvsmod ?x2215 (_ bv100 32)) (_ bv0 32)) true)) (= (bvsmod ?x2215 (_ bv400 32)) (_ bv0 32)))))
(let ((?x4678 (bvsub ?x1679 (bvmul ?x4324 (_ bv365 32)))))
(let ((?x34890 (ite $x13354 (_ bv31 32) (_ bv31 32))))
(let (($x3021 (bvsge ?x4678 ?x34890)))
(let ((?x4957 (ite $x3021 (bvadd (bvsub ?x4678 ?x34890) (_ bv1 32)) (bvadd (bvsub ?x4678 (ite $x13354 (_ bv0 32) (_ bv0 32))) (_ bv1 32)))))
(let ((?x2100 (ite $x13354 (_ bv60 32) (_ bv59 32))))
(let (($x5247 (bvsge ?x4678 ?x2100)))
(let ((?x5038 (ite $x13354 (_ bv91 32) (_ bv90 32))))
(let (($x9952 (bvsge ?x4678 ?x5038)))
(let ((?x42001 (ite $x9952 (bvadd (bvsub ?x4678 ?x5038) (_ bv1 32)) (ite $x5247 (bvadd (bvsub ?x4678 ?x2100) (_ bv1 32)) ?x4957))))
(let ((?x4238 (ite $x13354 (_ bv121 32) (_ bv120 32))))
(let (($x813 (bvsge ?x4678 ?x4238)))
(let ((?x2767 (ite $x13354 (_ bv152 32) (_ bv151 32))))
(let (($x4776 (bvsge ?x4678 ?x2767)))
(let ((?x3570 (ite $x4776 (bvadd (bvsub ?x4678 ?x2767) (_ bv1 32)) (ite $x813 (bvadd (bvsub ?x4678 ?x4238) (_ bv1 32)) ?x42001))))
(let ((?x4157 (ite $x13354 (_ bv182 32) (_ bv181 32))))
(let (($x4976 (bvsge ?x4678 ?x4157)))
(let ((?x1479 (ite $x13354 (_ bv213 32) (_ bv212 32))))
(let (($x3968 (bvsge ?x4678 ?x1479)))
(let ((?x4927 (ite $x3968 (bvadd (bvsub ?x4678 ?x1479) (_ bv1 32)) (ite $x4976 (bvadd (bvsub ?x4678 ?x4157) (_ bv1 32)) ?x3570))))
(let ((?x3647 (ite $x13354 (_ bv244 32) (_ bv243 32))))
(let (($x42689 (bvsge ?x4678 ?x3647)))
(let ((?x4378 (ite $x13354 (_ bv274 32) (_ bv273 32))))
(let (($x2472 (bvsge ?x4678 ?x4378)))
(let ((?x43013 (ite $x2472 (bvadd (bvsub ?x4678 ?x4378) (_ bv1 32)) (ite $x42689 (bvadd (bvsub ?x4678 ?x3647) (_ bv1 32)) ?x4927))))
(let ((?x3154 (ite $x13354 (_ bv305 32) (_ bv304 32))))
(let (($x2116 (bvsge ?x4678 ?x3154)))
(let ((?x1239 (ite $x13354 (_ bv335 32) (_ bv334 32))))
(let (($x59883 (bvsge ?x4678 ?x1239)))
(let ((?x7595 (ite $x59883 (bvadd (bvsub ?x4678 ?x1239) (_ bv1 32)) (ite $x2116 (bvadd (bvsub ?x4678 ?x3154) (_ bv1 32)) ?x43013))))
(let ((?x5525 (ite $x4776 (_ bv6 32) (ite $x813 (_ bv5 32) (ite $x9952 (_ bv4 32) (ite $x5247 (_ bv3 32) (ite $x3021 (_ bv2 32) (_ bv1 32))))))))
(let ((?x1060 (ite $x2116 (_ bv11 32) (ite $x2472 (_ bv10 32) (ite $x42689 (_ bv9 32) (ite $x3968 (_ bv8 32) (ite $x4976 (_ bv7 32) ?x5525)))))))
(let ((?x1294 (bvadd (ite $x59883 (_ bv12 32) ?x1060) (bvadd (bvmul (_ bv0 32) (_ bv12 32)) (_ bv2 32)))))
(let ((?x13302 (bvsub (ite (bvuge ?x1294 (_ bv2147483648 32)) (bvsub ?x1294 (_ bv0 32)) ?x1294) (_ bv1 32))))
(let ((?x3664 (bvsmod ?x13302 (_ bv12 32))))
(let ((?x4933 (bvadd ?x3664 (_ bv1 32))))
(let ((?x5940 (ite (or (= ?x4933 (_ bv4 32)) (= ?x4933 (_ bv6 32)) (= ?x4933 (_ bv9 32)) (= ?x4933 (_ bv11 32))) (_ bv30 32) (_ bv31 32))))
(let ((?x82653 (bvsdiv ?x13302 (_ bv12 32))))
(let ((?x3628 (ite (and (bvuge ?x13302 (_ bv2147483648 32)) (and (distinct (_ bv0 32) ?x3664) true)) (bvsub ?x82653 (_ bv1 32)) ?x82653)))
(let ((?x51045 (bvadd ?x2215 (bvadd (_ bv0 32) ?x3628))))
(let (($x24390 (or (and (= (bvsmod ?x51045 (_ bv4 32)) (_ bv0 32)) (and (distinct (bvsmod ?x51045 (_ bv100 32)) (_ bv0 32)) true)) (= (bvsmod ?x51045 (_ bv400 32)) (_ bv0 32)))))
(let ((?x59765 (ite (= ?x4933 (_ bv2 32)) (ite $x24390 (_ bv29 32) (_ bv28 32)) ?x5940)))
(let ((?x832 (ite (bvsgt (_ bv1 32) ?x7595) (_ bv1 32) (ite (bvsgt ?x7595 ?x59765) ?x59765 ?x7595))))
(let ((?x42993 (ite (bvsgt (_ bv1 32) ?x832) (_ bv1 32) (ite (bvsgt ?x832 ?x59765) ?x59765 ?x832))))
(let ((?x4214 (ite (= (_ bv2 32) ?x4933) (ite $x24390 (_ bv31 32) (_ bv31 32)) (ite (= (_ bv1 32) ?x4933) (ite $x24390 (_ bv0 32) (_ bv0 32)) (_ bv0 32)))))
(let ((?x51561 (ite (= (_ bv4 32) ?x4933) (ite $x24390 (_ bv91 32) (_ bv90 32)) (ite (= (_ bv3 32) ?x4933) (ite $x24390 (_ bv60 32) (_ bv59 32)) ?x4214))))
(let ((?x4988 (ite (= (_ bv6 32) ?x4933) (ite $x24390 (_ bv152 32) (_ bv151 32)) (ite (= (_ bv5 32) ?x4933) (ite $x24390 (_ bv121 32) (_ bv120 32)) ?x51561))))
(let ((?x1129 (ite (= (_ bv8 32) ?x4933) (ite $x24390 (_ bv213 32) (_ bv212 32)) (ite (= (_ bv7 32) ?x4933) (ite $x24390 (_ bv182 32) (_ bv181 32)) ?x4988))))
(let ((?x41931 (ite (= (_ bv10 32) ?x4933) (ite $x24390 (_ bv274 32) (_ bv273 32)) (ite (= (_ bv9 32) ?x4933) (ite $x24390 (_ bv244 32) (_ bv243 32)) ?x1129))))
(let ((?x3630 (ite (= (_ bv12 32) ?x4933) (ite $x24390 (_ bv335 32) (_ bv334 32)) (ite (= (_ bv11 32) ?x4933) (ite $x24390 (_ bv305 32) (_ bv304 32)) ?x41931))))
(let ((?x38037 (bvadd (bvmul (_ bv365 32) (bvsub ?x51045 (_ bv1 32))) (bvsdiv (bvsub ?x51045 (_ bv1 32)) (_ bv4 32)))))
(let ((?x3010 (bvadd (bvsub ?x38037 (bvsdiv (bvsub ?x51045 (_ bv1 32)) (_ bv100 32))) (bvsdiv (bvsub ?x51045 (_ bv1 32)) (_ bv400 32)))))
(let ((?x73528 (bvadd (bvadd (bvsub (bvadd (bvadd ?x3010 ?x3630) (bvsub ?x42993 (_ bv1 32))) (_ bv730179 32)) (_ bv0 32)) (_ bv730179 32))))
(let ((?x6119 (bvsmod ?x73528 (_ bv146097 32))))
(let ((?x42188 (bvsdiv ?x6119 (_ bv36524 32))))
(let ((?x10125 (ite (bvsle (_ bv4 32) ?x42188) (_ bv3 32) ?x42188)))
(let ((?x2919 (bvsub ?x6119 (bvmul ?x10125 (_ bv36524 32)))))
(let ((?x38058 (bvsmod ?x2919 (_ bv1461 32))))
(let ((?x65449 (bvsdiv ?x38058 (_ bv365 32))))
(let ((?x5000 (ite (bvsle (_ bv4 32) ?x65449) (_ bv3 32) ?x65449)))
(let ((?x1522 (bvadd (bvadd (bvmul (bvsdiv ?x73528 (_ bv146097 32)) (_ bv400 32)) (bvmul ?x10125 (_ bv100 32))) (bvmul (bvsdiv ?x2919 (_ bv1461 32)) (_ bv4 32)))))
(let ((?x3098 (bvadd (bvadd ?x1522 ?x5000) (_ bv1 32))))
(let (($x35031 (or (and (= (bvsmod ?x3098 (_ bv4 32)) (_ bv0 32)) (and (distinct (bvsmod ?x3098 (_ bv100 32)) (_ bv0 32)) true)) (= (bvsmod ?x3098 (_ bv400 32)) (_ bv0 32)))))
(let ((?x3818 (bvsub ?x38058 (bvmul ?x5000 (_ bv365 32)))))
(let ((?x73972 (ite $x35031 (_ bv31 32) (_ bv31 32))))
(let (($x10092 (bvsge ?x3818 ?x73972)))
(let ((?x1917 (ite $x10092 (bvadd (bvsub ?x3818 ?x73972) (_ bv1 32)) (bvadd (bvsub ?x3818 (ite $x35031 (_ bv0 32) (_ bv0 32))) (_ bv1 32)))))
(let ((?x75661 (ite $x35031 (_ bv60 32) (_ bv59 32))))
(let (($x1688 (bvsge ?x3818 ?x75661)))
(let ((?x1578 (ite $x35031 (_ bv91 32) (_ bv90 32))))
(let (($x42172 (bvsge ?x3818 ?x1578)))
(let ((?x1247 (ite $x42172 (bvadd (bvsub ?x3818 ?x1578) (_ bv1 32)) (ite $x1688 (bvadd (bvsub ?x3818 ?x75661) (_ bv1 32)) ?x1917))))
(let ((?x4505 (ite $x35031 (_ bv121 32) (_ bv120 32))))
(let (($x72790 (bvsge ?x3818 ?x4505)))
(let ((?x30300 (ite $x35031 (_ bv152 32) (_ bv151 32))))
(let (($x38033 (bvsge ?x3818 ?x30300)))
(let ((?x4951 (ite $x38033 (bvadd (bvsub ?x3818 ?x30300) (_ bv1 32)) (ite $x72790 (bvadd (bvsub ?x3818 ?x4505) (_ bv1 32)) ?x1247))))
(let ((?x10064 (ite $x35031 (_ bv182 32) (_ bv181 32))))
(let (($x25933 (bvsge ?x3818 ?x10064)))
(let ((?x39181 (ite $x35031 (_ bv213 32) (_ bv212 32))))
(let (($x41394 (bvsge ?x3818 ?x39181)))
(let ((?x51024 (ite $x41394 (bvadd (bvsub ?x3818 ?x39181) (_ bv1 32)) (ite $x25933 (bvadd (bvsub ?x3818 ?x10064) (_ bv1 32)) ?x4951))))
(let ((?x10254 (ite $x35031 (_ bv244 32) (_ bv243 32))))
(let (($x41378 (bvsge ?x3818 ?x10254)))
(let ((?x74851 (ite $x35031 (_ bv274 32) (_ bv273 32))))
(let (($x10166 (bvsge ?x3818 ?x74851)))
(let ((?x9872 (ite $x10166 (bvadd (bvsub ?x3818 ?x74851) (_ bv1 32)) (ite $x41378 (bvadd (bvsub ?x3818 ?x10254) (_ bv1 32)) ?x51024))))
(let ((?x74009 (ite $x35031 (_ bv305 32) (_ bv304 32))))
(let (($x38083 (bvsge ?x3818 ?x74009)))
(let ((?x42999 (ite $x35031 (_ bv335 32) (_ bv334 32))))
(let (($x21678 (bvsge ?x3818 ?x42999)))
(let ((?x9917 (ite $x21678 (bvadd (bvsub ?x3818 ?x42999) (_ bv1 32)) (ite $x38083 (bvadd (bvsub ?x3818 ?x74009) (_ bv1 32)) ?x9872))))
(let (($x41570 (= (_ bv0 32) (_ bv0 32))))
(let (($x81372 (and (= (bvsmod (ite $x41570 ?x51045 ?x3098) (_ bv4 32)) (_ bv0 32)) (and (distinct (bvsmod (ite $x41570 ?x51045 ?x3098) (_ bv100 32)) (_ bv0 32)) true))))
(let (($x4620 (or $x81372 (= (bvsmod (ite $x41570 ?x51045 ?x3098) (_ bv400 32)) (_ bv0 32)))))
(let ((?x75833 (ite $x38033 (_ bv6 32) (ite $x72790 (_ bv5 32) (ite $x42172 (_ bv4 32) (ite $x1688 (_ bv3 32) (ite $x10092 (_ bv2 32) (_ bv1 32))))))))
(let ((?x10108 (ite $x38083 (_ bv11 32) (ite $x10166 (_ bv10 32) (ite $x41378 (_ bv9 32) (ite $x41394 (_ bv8 32) (ite $x25933 (_ bv7 32) ?x75833)))))))
(let ((?x75702 (ite $x41570 ?x4933 (ite $x21678 (_ bv12 32) ?x10108))))
(let ((?x10130 (ite (= (_ bv2 32) ?x75702) (ite $x4620 (_ bv31 32) (_ bv31 32)) (ite (= (_ bv1 32) ?x75702) (ite $x4620 (_ bv0 32) (_ bv0 32)) (_ bv0 32)))))
(let ((?x38061 (ite (= (_ bv4 32) ?x75702) (ite $x4620 (_ bv91 32) (_ bv90 32)) (ite (= (_ bv3 32) ?x75702) (ite $x4620 (_ bv60 32) (_ bv59 32)) ?x10130))))
(let ((?x1270 (ite (= (_ bv6 32) ?x75702) (ite $x4620 (_ bv152 32) (_ bv151 32)) (ite (= (_ bv5 32) ?x75702) (ite $x4620 (_ bv121 32) (_ bv120 32)) ?x38061))))
(let ((?x10136 (ite (= (_ bv8 32) ?x75702) (ite $x4620 (_ bv213 32) (_ bv212 32)) (ite (= (_ bv7 32) ?x75702) (ite $x4620 (_ bv182 32) (_ bv181 32)) ?x1270))))
(let ((?x42979 (ite (= (_ bv10 32) ?x75702) (ite $x4620 (_ bv274 32) (_ bv273 32)) (ite (= (_ bv9 32) ?x75702) (ite $x4620 (_ bv244 32) (_ bv243 32)) ?x10136))))
(let ((?x4749 (ite (= (_ bv12 32) ?x75702) (ite $x4620 (_ bv335 32) (_ bv334 32)) (ite (= (_ bv11 32) ?x75702) (ite $x4620 (_ bv305 32) (_ bv304 32)) ?x42979))))
(let ((?x9912 (bvadd (bvmul (_ bv365 32) (bvsub (ite $x41570 ?x51045 ?x3098) (_ bv1 32))) (bvsdiv (bvsub (ite $x41570 ?x51045 ?x3098) (_ bv1 32)) (_ bv4 32)))))
(let ((?x3003 (bvadd (bvsub ?x9912 (bvsdiv (bvsub (ite $x41570 ?x51045 ?x3098) (_ bv1 32)) (_ bv100 32))) (bvsdiv (bvsub (ite $x41570 ?x51045 ?x3098) (_ bv1 32)) (_ bv400 32)))))
(let ((?x4903 (bvsub (bvadd (bvadd ?x3003 ?x4749) (bvsub (ite $x41570 ?x42993 ?x9917) (_ bv1 32))) (_ bv730179 32))))
(= ?x4903 (bvadd x_days (_ bv61 32)))))))))))))))))))))))))))))))))))))))))))))))))))))))))))))))))))))))))))))))))))))))))))))))))))))))))))))))))))))))))
(check-sat)
